c description: Pigeonhole principle formula for 2 pigeons and 3 holes
c generator: CNFgen (0.9.2)
c copyright: (C) 2012-2022 Massimo Lauria <massimo.lauria@uniroma1.it>
c url: https://massimolauria.net/cnfgen
c command line: cnfgen php 2 3
c
p cnf 6 5
1 2 3 0
4 5 6 0
-1 -4 0
-2 -5 0
-3 -6 0
